(set-logic QF_LRA)
(declare-fun X0 () Real )
(declare-fun Y0 () Real )
(declare-fun X1 () Real )
(declare-fun Y1 () Real )
(declare-fun X2 () Real )
(declare-fun Y2 () Real )
(declare-fun X3 () Real )
(declare-fun Y3 () Real )
(declare-fun X4 () Real )
(declare-fun Y4 () Real )
(declare-fun X5 () Real )
(declare-fun Y5 () Real )
(declare-fun Z () Real )
(declare-fun k () Real )
(assert (let
(( $goal (>= Z k) ))
(let
((
$phi ( and 
( or ( <= ( + X0 61 ) X1 )  ( <= ( + X1 60 ) X0 )  ( <= ( + Y0 30 ) Y1 )  ( <= ( + Y1 87 ) Y0 )  )
( or ( <= ( + X0 61 ) X2 )  ( <= ( + X2 99 ) X0 )  ( <= ( + Y0 30 ) Y2 )  ( <= ( + Y2 87 ) Y0 )  )
( or ( <= ( + X0 61 ) X3 )  ( <= ( + X3 58 ) X0 )  ( <= ( + Y0 30 ) Y3 )  ( <= ( + Y3 26 ) Y0 )  )
( or ( <= ( + X0 61 ) X4 )  ( <= ( + X4 57 ) X0 )  ( <= ( + Y0 30 ) Y4 )  ( <= ( + Y4 87 ) Y0 )  )
( or ( <= ( + X0 61 ) X5 )  ( <= ( + X5 70 ) X0 )  ( <= ( + Y0 30 ) Y5 )  ( <= ( + Y5 89 ) Y0 )  )
( or ( <= ( + X1 60 ) X2 )  ( <= ( + X2 99 ) X1 )  ( <= ( + Y1 87 ) Y2 )  ( <= ( + Y2 87 ) Y1 )  )
( or ( <= ( + X1 60 ) X3 )  ( <= ( + X3 58 ) X1 )  ( <= ( + Y1 87 ) Y3 )  ( <= ( + Y3 26 ) Y1 )  )
( or ( <= ( + X1 60 ) X4 )  ( <= ( + X4 57 ) X1 )  ( <= ( + Y1 87 ) Y4 )  ( <= ( + Y4 87 ) Y1 )  )
( or ( <= ( + X1 60 ) X5 )  ( <= ( + X5 70 ) X1 )  ( <= ( + Y1 87 ) Y5 )  ( <= ( + Y5 89 ) Y1 )  )
( or ( <= ( + X2 99 ) X3 )  ( <= ( + X3 58 ) X2 )  ( <= ( + Y2 87 ) Y3 )  ( <= ( + Y3 26 ) Y2 )  )
( or ( <= ( + X2 99 ) X4 )  ( <= ( + X4 57 ) X2 )  ( <= ( + Y2 87 ) Y4 )  ( <= ( + Y4 87 ) Y2 )  )
( or ( <= ( + X2 99 ) X5 )  ( <= ( + X5 70 ) X2 )  ( <= ( + Y2 87 ) Y5 )  ( <= ( + Y5 89 ) Y2 )  )
( or ( <= ( + X3 58 ) X4 )  ( <= ( + X4 57 ) X3 )  ( <= ( + Y3 26 ) Y4 )  ( <= ( + Y4 87 ) Y3 )  )
( or ( <= ( + X3 58 ) X5 )  ( <= ( + X5 70 ) X3 )  ( <= ( + Y3 26 ) Y5 )  ( <= ( + Y5 89 ) Y3 )  )
( or ( <= ( + X4 57 ) X5 )  ( <= ( + X5 70 ) X4 )  ( <= ( + Y4 87 ) Y5 )  ( <= ( + Y5 89 ) Y4 )  )
( >= X0 0)
( <= ( + X0 61) Z)
( >= Y0 0)
( <= ( + Y0 30 ) 100)
( >= X1 0)
( <= ( + X1 60) Z)
( >= Y1 0)
( <= ( + Y1 87 ) 100)
( >= X2 0)
( <= ( + X2 99) Z)
( >= Y2 0)
( <= ( + Y2 87 ) 100)
( >= X3 0)
( <= ( + X3 58) Z)
( >= Y3 0)
( <= ( + Y3 26 ) 100)
( >= X4 0)
( <= ( + X4 57) Z)
( >= Y4 0)
( <= ( + Y4 87 ) 100)
( >= X5 0)
( <= ( + X5 70) Z)
( >= Y5 0)
( <= ( + Y5 89 ) 100)
) )
)(=> $phi $goal))))